<number of tasks>
20

<cycle time>
1000

<order strength>
0,532


<task times>
1 132
2 245
3 126
4 238
5 79
6 208
7 96
8 242
9 208
10 52
11 118
12 347
13 60
14 120
15 51
16 81
17 93
18 135
19 91
20 88

<precedence relations>
1,9
2,9
3,6
4,5
4,7
4,8
5,9
6,9
7,10
7,19
7,20
8,10
9,11
9,12
9,13
9,14
10,15
10,18
11,16
11,17
13,16
15,17
16,18
16,19
16,20

<end>
